% File represents an instance of a Composite Structure problem to be solved by a CP framework
% Created on 2025-03-25 14:06:13.059
T = 58;
n = 25;
m = 40;
edges = [(2, 1),
(6, 7),
(11, 12),
(16, 17),
(22, 21),
(3, 2),
(8, 7),
(12, 13),
(17, 18),
(22, 23),
(3, 4),
(8, 9),
(14, 13),
(19, 18),
(23, 24),
(5, 4),
(10, 9),
(14, 15),
(20, 19),
(25, 24),
(6, 1),
(11, 6),
(11, 16),
(16, 21),
(7, 2),
(12, 7),
(12, 17),
(22, 17),
(8, 3),
(13, 8),
(13, 18),
(23, 18),
(9, 4),
(14, 9),
(14, 19),
(19, 24),
(10, 5),
(10, 15),
(20, 15),
(20, 25)];
counts = [|4, 20, 6, 10,
|4, 22, 6, 12,
|4, 24, 8, 12,
|4, 20, 8, 8,
|4, 24, 14, 8,
|4, 24, 10, 12,
|4, 22, 8, 12,
|4, 24, 8, 14,
|4, 24, 8, 12,
|6, 24, 14, 14,
|6, 24, 10, 18,
|6, 24, 8, 18,
|4, 24, 8, 18,
|6, 24, 8, 18,
|6, 24, 6, 12,
|6, 22, 10, 18,
|6, 22, 8, 18,
|4, 20, 4, 18,
|6, 24, 6, 18,
|6, 28, 6, 18,
|6, 22, 8, 18,
|6, 22, 8, 20,
|6, 20, 8, 18,
|6, 20, 6, 18,
|6, 24, 6, 18|];
